%%%mzn-stat: initTime=0.005793984
%%%mzn-stat: objective=394
%%%mzn-stat: nodes=898
%%%mzn-stat: restarts=0
%%%mzn-stat: peakDepth=173
%%%mzn-stat: solveTime=0.180849813
%%%mzn-stat: variables=464
%%%mzn-stat: propagators=287
%%%mzn-stat: failures=662
%%%mzn-stat: propagations=47350
%%%mzn-stat: nogoods=662
%%%mzn-stat: AverageConflictSize=3.8836858006042294
%%%mzn-stat: NumUnitNogoodsLearned=393
%%%mzn-stat: AverageLearnedNogoodLength=6.380664652567976
%%%mzn-stat: AverageBacktrackAmount=0
%%%mzn-stat: AverageLbd=2.706948640483384
%%%mzn-stat-end
maxleg = 394;
succ = array1d(1..50,[34, 50, 16, 29, 33, 13, 3, 46, 47, 2, 44, 49, 19, 10, 36, 6, 28, 17, 5, 38, 11, 26, 40, 15, 21, 31, 14, 12, 41, 32, 8, 25, 27, 24, 30, 43, 4, 39, 22, 9, 20, 7, 18, 23, 1, 48, 42, 45, 35, 37]);
% time elapsed: 4.30 s
----------
==========
% time elapsed: 4.30 s
%%%mzn-stat: initTime=0.005793984
%%%mzn-stat: objective=394
%%%mzn-stat: nodes=898
%%%mzn-stat: restarts=0
%%%mzn-stat: peakDepth=173
%%%mzn-stat: solveTime=0.180864529
%%%mzn-stat: variables=464
%%%mzn-stat: propagators=287
%%%mzn-stat: failures=662
%%%mzn-stat: propagations=47350
%%%mzn-stat: nogoods=662
%%%mzn-stat: AverageConflictSize=3.8836858006042294
%%%mzn-stat: NumUnitNogoodsLearned=393
%%%mzn-stat: AverageLearnedNogoodLength=6.380664652567976
%%%mzn-stat: AverageBacktrackAmount=0
%%%mzn-stat: AverageLbd=2.706948640483384
%%%mzn-stat-end
